c preprocessed version of BN_0, 67 vertices, 243 edges
p td 67 243
1 0
36 0
46 0
45 0
8 0
51 0
2 1
36 1
22 1
23 1
60 1
59 1
2 3
2 36
22 2
4 2
23 2
53 2
60 2
37 2
59 2
4 3
38 3
51 3
4 5
4 6
4 7
24 4
25 4
4 35
34 4
6 5
5 7
5 16
35 5
53 5
17 5
34 5
52 5
6 7
35 6
39 6
34 6
56 6
38 6
8 7
35 7
34 7
29 7
8 9
27 8
8 15
8 46
14 8
8 61
8 45
31 8
51 8
10 9
12 9
9 11
59 9
10 11
10 12
25 10
59 10
50 10
12 11
32 11
54 11
24 11
59 11
13 12
20 12
59 12
57 12
48 12
14 13
19 13
18 13
20 13
44 13
48 13
14 15
27 14
31 14
14 19
14 18
14 26
14 36
38 14
14 37
15 16
27 15
55 15
17 16
55 16
17 18
33 17
17 32
20 17
19 18
54 18
53 18
20 18
20 19
19 60
20 21
20 37
57 20
48 20
22 21
29 21
23 22
60 22
42 22
59 22
43 22
50 22
24 23
46 23
60 23
59 23
24 25
24 46
40 24
42 24
41 24
25 26
25 45
25 44
28 25
27 26
28 26
29 26
28 29
28 47
29 30
47 29
58 29
30 31
41 30
59 30
58 30
31 32
31 36
41 31
31 61
31 59
56 31
33 32
44 32
32 54
56 32
43 32
33 34
33 46
47 33
34 35
35 36
37 36
38 37
37 61
57 37
38 39
56 38
57 38
51 38
55 38
40 39
59 39
56 39
41 40
40 42
48 40
41 42
59 41
43 42
50 42
43 44
58 43
48 43
49 43
50 43
44 45
45 46
51 45
47 46
51 46
48 47
49 48
58 48
49 50
51 49
49 52
49 58
49 55
51 50
55 50
52 50
51 52
51 55
52 53
55 52
53 54
55 56
55 57
57 56
59 60
62 8
62 9
62 64
62 65
62 63
63 64
63 65
63 12
63 17
63 18
63 20
63 31
63 57
64 27
64 65
64 19
64 35
64 61
64 60
65 66
65 33
65 34
66 62
66 63
66 64
66 8
66 10
66 18
66 28
66 29
66 31
66 47
66 61
66 50
